NAME: star_n32
TYPE: TSP
DIMENSION: 32
EDGE_WEIGHT_TYPE: EUC_2D
NODE_COORD_SECTION
1 0.000000 0.000000
2 100.000000 0.000000
3 97.952994 20.129852
4 91.895781 39.435586
5 82.076344 57.126822
6 68.896692 72.479279
7 52.896401 84.864426
8 34.730525 93.775213
9 15.142778 98.846832
10 -5.064917 99.871651
11 -25.065253 96.807712
12 -44.039415 89.780454
13 -61.210598 79.077574
14 -75.875812 65.137248
15 -87.434662 48.530196
16 -95.413926 29.936312
17 -99.486932 10.116832
18 -99.486932 -10.116832
19 -95.413926 -29.936312
20 -87.434662 -48.530196
21 -75.875812 -65.137248
22 -61.210598 -79.077574
23 -44.039415 -89.780454
24 -25.065253 -96.807712
25 -5.064917 -99.871651
26 15.142778 -98.846832
27 34.730525 -93.775213
28 52.896401 -84.864426
29 68.896692 -72.479279
30 82.076344 -57.126822
31 91.895781 -39.435586
32 97.952994 -20.129852
EOF
